Version identifier: 20.1.0.0 | 2020-11-10 | 9bedb6d68
Tried aggregator 2 times.
MIP Presolve eliminated 951 rows and 492 columns.
MIP Presolve modified 2374 coefficients.
Aggregator did 107 substitutions.
Reduced MIP has 1351 rows, 1066 columns, and 4421 nonzeros.
Reduced MIP has 219 binaries, 847 generals, 0 SOSs, and 0 indicators.
Presolve time = 0.02 sec. (5.56 ticks)
Found incumbent of value 1383.000000 after 0.03 sec. (11.08 ticks)
Probing fixed 30 vars, tightened 327 bounds.
Probing time = 0.00 sec. (0.88 ticks)
Tried aggregator 2 times.
Detecting symmetries...
MIP Presolve eliminated 583 rows and 72 columns.
MIP Presolve modified 145 coefficients.
Aggregator did 30 substitutions.
Reduced MIP has 738 rows, 964 columns, and 2402 nonzeros.
Reduced MIP has 349 binaries, 615 generals, 0 SOSs, and 0 indicators.
Presolve time = 0.01 sec. (3.87 ticks)
Probing time = 0.00 sec. (0.24 ticks)
Clique table members: 65.
MIP emphasis: balance optimality and feasibility.
MIP search method: dynamic search.
Parallel mode: deterministic, using up to 24 threads.
Root relaxation solution time = 0.00 sec. (1.67 ticks)

        Nodes                                         Cuts/
   Node  Left     Objective  IInf  Best Integer    Best Bound    ItCnt     Gap

*     0+    0                         1383.0000        0.0000           100.00%
*     0+    0                           36.0000        0.0000           100.00%
      0     0        0.0000    62       36.0000        0.0000      202  100.00%
      0     0        0.0000   107       36.0000     Cuts: 106      283  100.00%
*     0+    0                           13.0000        0.0000           100.00%
      0     0       -0.0000    22       13.0000     Cuts: 182      482  100.00%
      0     0        0.1250   119       13.0000      Cuts: 40      568   99.04%
      0     0        0.2500    98       13.0000      Cuts: 50      632   98.08%
      0     0        0.2500   122       13.0000      Cuts: 68      710   98.08%
*     0+    0                           10.0000        0.2500            97.50%
*     0+    0                            7.0000        0.2500            96.43%
      0     0        cutoff              7.0000        7.0000      710    0.00%
Elapsed time = 0.36 sec. (91.68 ticks, tree = 0.01 MB, solutions = 5)

Cover cuts applied:  2
Implied bound cuts applied:  38
Flow cuts applied:  3
Mixed integer rounding cuts applied:  16
Zero-half cuts applied:  88
Lift and project cuts applied:  8
Gomory fractional cuts applied:  30

Root node processing (before b&c):
  Real time             =    0.36 sec. (91.79 ticks)
Parallel b&c, 24 threads:
  Real time             =    0.00 sec. (0.00 ticks)
  Sync time (average)   =    0.00 sec.
  Wait time (average)   =    0.00 sec.
                          ------------
Total (root+branch&cut) =    0.36 sec. (91.79 ticks)

Solution status = Optimal
Solution LB = 7
Solution UB = 7
Runtime = 0.366863 seconds
	Command being timed: "/home/min/git_repos/CS598MEBProject/CNT-ILP/build/cnt -s 2 ./output/k8_n15/simC_c1_k8_n15_u1_s1_del02.input-right.cnp"
	User time (seconds): 4.88
	System time (seconds): 0.07
	Percent of CPU this job got: 1292%
	Elapsed (wall clock) time (h:mm:ss or m:ss): 0:00.38
	Average shared text size (kbytes): 0
	Average unshared data size (kbytes): 0
	Average stack size (kbytes): 0
	Average total size (kbytes): 0
	Maximum resident set size (kbytes): 81748
	Average resident set size (kbytes): 0
	Major (requiring I/O) page faults: 0
	Minor (reclaiming a frame) page faults: 17980
	Voluntary context switches: 3493
	Involuntary context switches: 701
	Swaps: 0
	File system inputs: 0
	File system outputs: 16
	Socket messages sent: 0
	Socket messages received: 0
	Signals delivered: 0
	Page size (bytes): 4096
	Exit status: 0
